p cnf 7230 15
-1466 -1790 2586 0
1466 -2587 0
2588 2589 0
1882 -2589 0
-1882 -2588 0
-2586 2587 0
-2583 2585 0
2584 -2585 0
2582 -2584 0
-1880 2583 0
1880 -2582 0
1790 -2587 0
1884 -2591 0
-2580 2581 0
2580 -2581 0
